43
75
60	1
59	3
58	1
57	5
55	4
54	2
52	4
51	4
50	1
49	3
47	1
46	3
45	1
44	4
42	3
41	1
39	1
38	2
37	2
36	4
35	2
34	1
33	4
32	8
31	1
30	1
29	1
28	1
27	2
26	1
25	1
23	2
22	1
21	2
19	1
18	2
16	1
15	2
14	3
13	3
11	4
8	5
7	1
